292805
292805
292805
292805
292805
292156
292156
292156
292156
292156
290300
290300
290300
290300
286120
286120
283122
283122
283122
283122
282294
282294
282294
282294
282294
282294
282294
282294
282294
282294
282294
282294
282294
280301
277203
274330
274330
274330
274330
274330
274330
274172
274172
274172
274172
273456
273456
273456
273456
273456
272436
272436
272436
272436
272436
271872
271872
264907
264907
264907
264907
264907
264907
264907
264907
263173
263173
263173
261597
261597
261597
261597
260146
260146
260146
260146
260146
260146
260146
257711
257711
257711
257711
257711
257711
257711
257711
253933
253933
253933
253933
253933
253933
253933
253933
253933
253933
253933
253933
253933
